Tasks lengths
[51, 122, 138, 141, 151, 155, 158, 295, 386, 459]
2
Using license file /home/benedond/gurobi.lic
Using gurobi.env file
Set parameter Threads to value 1
Academic license - for non-commercial use only
Changed value of parameter TimeLimit to 300.0
   Prev: inf  Min: 0.0  Max: inf  Default: inf
Gurobi Optimizer version 9.0.1 build v9.0.1rc0 (linux64)
Optimize a model with 31 rows, 22 columns and 84 nonzeros
Model fingerprint: 0x51dddddf
Model has 20 quadratic objective terms
Variable types: 2 continuous, 20 integer (20 binary)
Coefficient statistics:
  Matrix range     [1e+00, 5e+02]
  Objective range  [0e+00, 0e+00]
  QObjective range [5e-03, 2e-02]
  Bounds range     [1e+00, 1e+00]
  RHS range        [1e+00, 3e+02]
Presolve removed 8 rows and 6 columns
Presolve time: 0.00s
Presolved: 37 rows, 30 columns, 98 nonzeros
Variable types: 0 continuous, 30 integer (14 binary)

Explored 1 nodes (0 simplex iterations) in 0.00 seconds
Thread count was 1 (of 4 available processors)

Solution count 0

Model is infeasible or unbounded
Best objective -, best bound -, gap -

Computing Irreducible Inconsistent Subsystem (IIS)...

      Constraints           Bounds       Runtime
     Min       Max       Min      Max
------------------------------------------------
        0       31         0        2         0s
       18       18         0        0         0s

IIS computed: 18 constraints, 0 bounds
IIS runtime: 0.01 seconds
